(set-logic ALL)
(declare-fun i1 () Int)
(declare-fun it1238 () Int)
(declare-fun it1239 () Int)
(declare-fun i2 () Int)
(declare-fun i3 () Int)
(declare-fun it1240 () Int)
(declare-fun i4 () Int)
(declare-fun it1241 () Int)
(declare-fun it1242 () Int)
(declare-fun i5 () Int)
(declare-fun i6 () Int)
(declare-fun it1243 () Int)
(declare-fun i7 () Int)
(declare-fun it1244 () Int)
(declare-fun it1245 () Int)
(declare-fun it1246 () Int)
(declare-fun it1247 () Int)
(declare-fun it1248 () Int)
(declare-fun it1249 () Int)
(declare-fun it1250 () Int)
(declare-fun it1251 () Int)
(declare-fun it1638 () Int)
(declare-fun it1639 () Int)
(declare-fun it1640 () Int)
(declare-fun it1641 () Int)
(declare-fun it1642 () Int)
(declare-fun it1643 () Int)
(declare-fun it1644 () Int)
(declare-fun it1645 () Int)
(declare-fun it1646 () Int)
(declare-fun it1647 () Int)
(declare-fun it1648 () Int)
(declare-fun it1649 () Int)
(declare-fun it1650 () Int)
(declare-fun it1651 () Int)
(declare-fun it1652 () Int)
(declare-fun it1653 () Int)
(declare-fun it1654 () Int)
(declare-fun it1655 () Int)
(declare-fun it1656 () Int)
(declare-fun it1657 () Int)
(declare-fun it1658 () Int)
(declare-fun it1659 () Int)
(declare-fun it1660 () Int)
(declare-fun it1661 () Int)
(declare-fun it1662 () Int)
(declare-fun it1663 () Int)
(declare-fun it1664 () Int)
(declare-fun it1665 () Int)
(declare-fun it1669 () Int)
(declare-fun it1670 () Int)
(declare-fun it1671 () Int)
(declare-fun it1672 () Int)
(declare-fun it1673 () Int)
(declare-fun it1674 () Int)
(declare-fun it1675 () Int)
(declare-fun it1676 () Int)
(declare-fun it1677 () Int)
(declare-fun it1678 () Int)
(declare-fun it1679 () Int)
(declare-fun it1680 () Int)
(declare-fun it1681 () Int)
(declare-fun it1682 () Int)
(declare-fun it316 () Int)
(assert (= (+ i1 (- 1)) 0))
(assert (= (+ it1238 (- 5)) 0))
(assert (= (+ (* i2 (- 1)) it1239 (- 4)) 0))
(assert (= (+ it1240 (* i3 (- 1))) 0))
(assert (= (+ it1241 (* i4 (- 1))) 0))
(assert (= (+ (* i5 (- 1)) it1242) 0))
(assert (= (+ it1243 (* i6 (- 1))) 0))
(assert (= (+ it1244 (* i7 (- 1))) 0))
(assert (and (= (+ it1238 (- 5)) 0) (> (+ it1241 (- 2)) 0)))
(assert (= (+ it1245 (- 18)) 0))
(assert (= (+ (* it1239 (- 1)) it1246 (- 12)) 0))
(assert (= (+ (* it1240 (- 1)) it1247) 0))
(assert (= (+ (* it1241 (- 1)) it1248) 0))
(assert (= (+ it1249 (* it1242 (- 1))) 0))
(assert (= it1250 0))
(assert (= (+ (* it1244 (- 1)) it1251) 0))
(assert (and (= (+ it1245 (- 18)) 0) (<= (+ it1250 (* it1248 (- 1)) 2) 0)))
(assert (= (+ it1638 (- 20)) 0))
(assert (= (+ it1639 (* it1246 (- 1)) (- 2)) 0))
(assert (= (+ (* it1247 (- 1)) it1640) 0))
(assert (= (+ it1641 (* it1248 (- 1))) 0))
(assert (= it1642 0))
(assert (= (+ it1643 (* it1250 (- 1))) 0))
(assert (= (+ it1644 (* it1251 (- 1))) 0))
(assert (and (= (+ it1638 (- 20)) 0) (<= (+ it1643 (* it1641 (- 1)) (* it1642 2) 3) 0)))
(assert (= (+ it1645 (- 21)) 0))
(assert (= (+ (* it1639 (- 1)) it1646 (- 1)) 0))
(assert (= (+ (* it1640 (- 1)) it1647) 0))
(assert (= (+ (* it1641 (- 1)) it1648) 0))
(assert (= (+ it1649 (* it1642 (- 1))) 0))
(assert (= (+ (* it1643 (- 1)) it1650) 0))
(assert (= (+ (* it1644 (- 1)) it1651) 0))
(assert (and (= (+ (* it1649 2) it1650 (* it1648 (- 1)) 3) 0) (= (+ it1645 (- 21)) 0)))
(assert (= (+ it1652 (- 26)) 0))
(assert (= (+ (* it1646 (- 1)) it1653 (- 2)) 0))
(assert (= (+ (* it1647 (- 1)) it1654) 0))
(assert (= (+ it1655 (* it1648 (- 1))) 0))
(assert (= (+ (* it1649 (- 1)) it1656) 0))
(assert (= (+ (* it1650 (- 1)) it1657) 0))
(assert (= (+ (* it1649 (- 2)) it1658 (- 1)) 0))
(assert (= (+ it1652 (- 26)) 0))
(assert (= (+ it1659 (- 20)) 0))
(assert (= (+ (* it1653 (- 1)) it1660 (- 1)) 0))
(assert (= (+ (* it1654 (- 1)) it1661) 0))
(assert (= (+ (* it1655 (- 1)) it1662) 0))
(assert (= (+ (* it1655 (- 1)) it1663) 0))
(assert (= (+ (* it1657 (- 1)) it1664) 0))
(assert (= (+ it1665 (* it1658 (- 1))) 0))
(assert (and (= (+ it1659 (- 20)) 0) (> (+ (* it1662 (- 1)) (* it1663 2) it1664 3) 0)))
(assert (= (+ it1669 (- 18)) 0))
(assert (= (+ (* it1660 (- 1)) it1670 (- 4)) 0))
(assert (= (+ it1671 (* it1664 (- 1)) (- 1)) 0))
(assert (= (+ (* it1662 (- 1)) it1672) 0))
(assert (= (+ (* it1663 (- 1)) it1673) 0))
(assert (= (+ (* it1664 (- 1)) it1674 (- 1)) 0))
(assert (= (+ (* it1665 (- 1)) it1675) 0))
(assert (and (= (+ it1669 (- 18)) 0) (<= (+ (* it1672 (- 1)) it1674 2) 0)))
(assert (= (+ it1676 (- 20)) 0))
(assert (= (+ (* it1670 (- 1)) it1677 (- 2)) 0))
(assert (= (+ (* it1671 (- 1)) it1678) 0))
(assert (= (+ (* it1672 (- 1)) it1679) 0))
(assert (= it1680 0))
(assert (= (+ it1681 (* it1674 (- 1))) 0))
(assert (= (+ (* it1675 (- 1)) it1682) 0))
(assert (let ((a!1 (+ (+ 0 (* it1681 (- 1)))
              (* (exp 2 (+ it316 (- 1))) (+ 0 it1680) (+ 0 (- 2)))
              (+ 0 it1679)
              (* (exp 2 it316) (+ 0 (- 2)))
              (+ 0 1))))
  (and (>= a!1 (+ 0 0))
       (>= (+ it1676 (- 20)) 0)
       (>= (+ (* it1681 (- 1)) it1679 (* it1680 (- 2)) (- 3)) 0)
       (>= (+ it316 (- 1)) 0)
       (>= (+ (* it1676 (- 1)) 20) 0)
       (> (+ (* it1681 (- 1)) it1679 (* it1680 (- 2)) (- 3)) 0)
       (> a!1 (+ 0 0)))))
(check-sat)
